60

 0   1   2   3   1   2   3   4   2   3   4   5   3   4   5   6   4   5   6   7   5   6   7   8   6   7   8   9   7   8   9  10   8   9  10  11   9  10  11  12  10  11  12  13  11  12  13  14  12  13  14  15  13  14  15  16  14  15  16  17  
 1   0   1   2   2   1   2   3   3   2   3   4   4   3   4   5   5   4   5   6   6   5   6   7   7   6   7   8   8   7   8   9   9   8   9  10  10   9  10  11  11  10  11  12  12  11  12  13  13  12  13  14  14  13  14  15  15  14  15  16  
 2   1   0   1   3   2   1   2   4   3   2   3   5   4   3   4   6   5   4   5   7   6   5   6   8   7   6   7   9   8   7   8  10   9   8   9  11  10   9  10  12  11  10  11  13  12  11  12  14  13  12  13  15  14  13  14  16  15  14  15  
 3   2   1   0   4   3   2   1   5   4   3   2   6   5   4   3   7   6   5   4   8   7   6   5   9   8   7   6  10   9   8   7  11  10   9   8  12  11  10   9  13  12  11  10  14  13  12  11  15  14  13  12  16  15  14  13  17  16  15  14  
 1   2   3   4   0   1   2   3   1   2   3   4   2   3   4   5   3   4   5   6   4   5   6   7   5   6   7   8   6   7   8   9   7   8   9  10   8   9  10  11   9  10  11  12  10  11  12  13  11  12  13  14  12  13  14  15  13  14  15  16  
 2   1   2   3   1   0   1   2   2   1   2   3   3   2   3   4   4   3   4   5   5   4   5   6   6   5   6   7   7   6   7   8   8   7   8   9   9   8   9  10  10   9  10  11  11  10  11  12  12  11  12  13  13  12  13  14  14  13  14  15  
 3   2   1   2   2   1   0   1   3   2   1   2   4   3   2   3   5   4   3   4   6   5   4   5   7   6   5   6   8   7   6   7   9   8   7   8  10   9   8   9  11  10   9  10  12  11  10  11  13  12  11  12  14  13  12  13  15  14  13  14  
 4   3   2   1   3   2   1   0   4   3   2   1   5   4   3   2   6   5   4   3   7   6   5   4   8   7   6   5   9   8   7   6  10   9   8   7  11  10   9   8  12  11  10   9  13  12  11  10  14  13  12  11  15  14  13  12  16  15  14  13  
 2   3   4   5   1   2   3   4   0   1   2   3   1   2   3   4   2   3   4   5   3   4   5   6   4   5   6   7   5   6   7   8   6   7   8   9   7   8   9  10   8   9  10  11   9  10  11  12  10  11  12  13  11  12  13  14  12  13  14  15  
 3   2   3   4   2   1   2   3   1   0   1   2   2   1   2   3   3   2   3   4   4   3   4   5   5   4   5   6   6   5   6   7   7   6   7   8   8   7   8   9   9   8   9  10  10   9  10  11  11  10  11  12  12  11  12  13  13  12  13  14  
 4   3   2   3   3   2   1   2   2   1   0   1   3   2   1   2   4   3   2   3   5   4   3   4   6   5   4   5   7   6   5   6   8   7   6   7   9   8   7   8  10   9   8   9  11  10   9  10  12  11  10  11  13  12  11  12  14  13  12  13  
 5   4   3   2   4   3   2   1   3   2   1   0   4   3   2   1   5   4   3   2   6   5   4   3   7   6   5   4   8   7   6   5   9   8   7   6  10   9   8   7  11  10   9   8  12  11  10   9  13  12  11  10  14  13  12  11  15  14  13  12  
 3   4   5   6   2   3   4   5   1   2   3   4   0   1   2   3   1   2   3   4   2   3   4   5   3   4   5   6   4   5   6   7   5   6   7   8   6   7   8   9   7   8   9  10   8   9  10  11   9  10  11  12  10  11  12  13  11  12  13  14  
 4   3   4   5   3   2   3   4   2   1   2   3   1   0   1   2   2   1   2   3   3   2   3   4   4   3   4   5   5   4   5   6   6   5   6   7   7   6   7   8   8   7   8   9   9   8   9  10  10   9  10  11  11  10  11  12  12  11  12  13  
 5   4   3   4   4   3   2   3   3   2   1   2   2   1   0   1   3   2   1   2   4   3   2   3   5   4   3   4   6   5   4   5   7   6   5   6   8   7   6   7   9   8   7   8  10   9   8   9  11  10   9  10  12  11  10  11  13  12  11  12  
 6   5   4   3   5   4   3   2   4   3   2   1   3   2   1   0   4   3   2   1   5   4   3   2   6   5   4   3   7   6   5   4   8   7   6   5   9   8   7   6  10   9   8   7  11  10   9   8  12  11  10   9  13  12  11  10  14  13  12  11  
 4   5   6   7   3   4   5   6   2   3   4   5   1   2   3   4   0   1   2   3   1   2   3   4   2   3   4   5   3   4   5   6   4   5   6   7   5   6   7   8   6   7   8   9   7   8   9  10   8   9  10  11   9  10  11  12  10  11  12  13  
 5   4   5   6   4   3   4   5   3   2   3   4   2   1   2   3   1   0   1   2   2   1   2   3   3   2   3   4   4   3   4   5   5   4   5   6   6   5   6   7   7   6   7   8   8   7   8   9   9   8   9  10  10   9  10  11  11  10  11  12  
 6   5   4   5   5   4   3   4   4   3   2   3   3   2   1   2   2   1   0   1   3   2   1   2   4   3   2   3   5   4   3   4   6   5   4   5   7   6   5   6   8   7   6   7   9   8   7   8  10   9   8   9  11  10   9  10  12  11  10  11  
 7   6   5   4   6   5   4   3   5   4   3   2   4   3   2   1   3   2   1   0   4   3   2   1   5   4   3   2   6   5   4   3   7   6   5   4   8   7   6   5   9   8   7   6  10   9   8   7  11  10   9   8  12  11  10   9  13  12  11  10  
 5   6   7   8   4   5   6   7   3   4   5   6   2   3   4   5   1   2   3   4   0   1   2   3   1   2   3   4   2   3   4   5   3   4   5   6   4   5   6   7   5   6   7   8   6   7   8   9   7   8   9  10   8   9  10  11   9  10  11  12  
 6   5   6   7   5   4   5   6   4   3   4   5   3   2   3   4   2   1   2   3   1   0   1   2   2   1   2   3   3   2   3   4   4   3   4   5   5   4   5   6   6   5   6   7   7   6   7   8   8   7   8   9   9   8   9  10  10   9  10  11  
 7   6   5   6   6   5   4   5   5   4   3   4   4   3   2   3   3   2   1   2   2   1   0   1   3   2   1   2   4   3   2   3   5   4   3   4   6   5   4   5   7   6   5   6   8   7   6   7   9   8   7   8  10   9   8   9  11  10   9  10  
 8   7   6   5   7   6   5   4   6   5   4   3   5   4   3   2   4   3   2   1   3   2   1   0   4   3   2   1   5   4   3   2   6   5   4   3   7   6   5   4   8   7   6   5   9   8   7   6  10   9   8   7  11  10   9   8  12  11  10   9  
 6   7   8   9   5   6   7   8   4   5   6   7   3   4   5   6   2   3   4   5   1   2   3   4   0   1   2   3   1   2   3   4   2   3   4   5   3   4   5   6   4   5   6   7   5   6   7   8   6   7   8   9   7   8   9  10   8   9  10  11  
 7   6   7   8   6   5   6   7   5   4   5   6   4   3   4   5   3   2   3   4   2   1   2   3   1   0   1   2   2   1   2   3   3   2   3   4   4   3   4   5   5   4   5   6   6   5   6   7   7   6   7   8   8   7   8   9   9   8   9  10  
 8   7   6   7   7   6   5   6   6   5   4   5   5   4   3   4   4   3   2   3   3   2   1   2   2   1   0   1   3   2   1   2   4   3   2   3   5   4   3   4   6   5   4   5   7   6   5   6   8   7   6   7   9   8   7   8  10   9   8   9  
 9   8   7   6   8   7   6   5   7   6   5   4   6   5   4   3   5   4   3   2   4   3   2   1   3   2   1   0   4   3   2   1   5   4   3   2   6   5   4   3   7   6   5   4   8   7   6   5   9   8   7   6  10   9   8   7  11  10   9   8  
 7   8   9  10   6   7   8   9   5   6   7   8   4   5   6   7   3   4   5   6   2   3   4   5   1   2   3   4   0   1   2   3   1   2   3   4   2   3   4   5   3   4   5   6   4   5   6   7   5   6   7   8   6   7   8   9   7   8   9  10  
 8   7   8   9   7   6   7   8   6   5   6   7   5   4   5   6   4   3   4   5   3   2   3   4   2   1   2   3   1   0   1   2   2   1   2   3   3   2   3   4   4   3   4   5   5   4   5   6   6   5   6   7   7   6   7   8   8   7   8   9  
 9   8   7   8   8   7   6   7   7   6   5   6   6   5   4   5   5   4   3   4   4   3   2   3   3   2   1   2   2   1   0   1   3   2   1   2   4   3   2   3   5   4   3   4   6   5   4   5   7   6   5   6   8   7   6   7   9   8   7   8  
10   9   8   7   9   8   7   6   8   7   6   5   7   6   5   4   6   5   4   3   5   4   3   2   4   3   2   1   3   2   1   0   4   3   2   1   5   4   3   2   6   5   4   3   7   6   5   4   8   7   6   5   9   8   7   6  10   9   8   7  
 8   9  10  11   7   8   9  10   6   7   8   9   5   6   7   8   4   5   6   7   3   4   5   6   2   3   4   5   1   2   3   4   0   1   2   3   1   2   3   4   2   3   4   5   3   4   5   6   4   5   6   7   5   6   7   8   6   7   8   9  
 9   8   9  10   8   7   8   9   7   6   7   8   6   5   6   7   5   4   5   6   4   3   4   5   3   2   3   4   2   1   2   3   1   0   1   2   2   1   2   3   3   2   3   4   4   3   4   5   5   4   5   6   6   5   6   7   7   6   7   8  
10   9   8   9   9   8   7   8   8   7   6   7   7   6   5   6   6   5   4   5   5   4   3   4   4   3   2   3   3   2   1   2   2   1   0   1   3   2   1   2   4   3   2   3   5   4   3   4   6   5   4   5   7   6   5   6   8   7   6   7  
11  10   9   8  10   9   8   7   9   8   7   6   8   7   6   5   7   6   5   4   6   5   4   3   5   4   3   2   4   3   2   1   3   2   1   0   4   3   2   1   5   4   3   2   6   5   4   3   7   6   5   4   8   7   6   5   9   8   7   6  
 9  10  11  12   8   9  10  11   7   8   9  10   6   7   8   9   5   6   7   8   4   5   6   7   3   4   5   6   2   3   4   5   1   2   3   4   0   1   2   3   1   2   3   4   2   3   4   5   3   4   5   6   4   5   6   7   5   6   7   8  
10   9  10  11   9   8   9  10   8   7   8   9   7   6   7   8   6   5   6   7   5   4   5   6   4   3   4   5   3   2   3   4   2   1   2   3   1   0   1   2   2   1   2   3   3   2   3   4   4   3   4   5   5   4   5   6   6   5   6   7  
11  10   9  10  10   9   8   9   9   8   7   8   8   7   6   7   7   6   5   6   6   5   4   5   5   4   3   4   4   3   2   3   3   2   1   2   2   1   0   1   3   2   1   2   4   3   2   3   5   4   3   4   6   5   4   5   7   6   5   6  
12  11  10   9  11  10   9   8  10   9   8   7   9   8   7   6   8   7   6   5   7   6   5   4   6   5   4   3   5   4   3   2   4   3   2   1   3   2   1   0   4   3   2   1   5   4   3   2   6   5   4   3   7   6   5   4   8   7   6   5  
10  11  12  13   9  10  11  12   8   9  10  11   7   8   9  10   6   7   8   9   5   6   7   8   4   5   6   7   3   4   5   6   2   3   4   5   1   2   3   4   0   1   2   3   1   2   3   4   2   3   4   5   3   4   5   6   4   5   6   7  
11  10  11  12  10   9  10  11   9   8   9  10   8   7   8   9   7   6   7   8   6   5   6   7   5   4   5   6   4   3   4   5   3   2   3   4   2   1   2   3   1   0   1   2   2   1   2   3   3   2   3   4   4   3   4   5   5   4   5   6  
12  11  10  11  11  10   9  10  10   9   8   9   9   8   7   8   8   7   6   7   7   6   5   6   6   5   4   5   5   4   3   4   4   3   2   3   3   2   1   2   2   1   0   1   3   2   1   2   4   3   2   3   5   4   3   4   6   5   4   5  
13  12  11  10  12  11  10   9  11  10   9   8  10   9   8   7   9   8   7   6   8   7   6   5   7   6   5   4   6   5   4   3   5   4   3   2   4   3   2   1   3   2   1   0   4   3   2   1   5   4   3   2   6   5   4   3   7   6   5   4  
11  12  13  14  10  11  12  13   9  10  11  12   8   9  10  11   7   8   9  10   6   7   8   9   5   6   7   8   4   5   6   7   3   4   5   6   2   3   4   5   1   2   3   4   0   1   2   3   1   2   3   4   2   3   4   5   3   4   5   6  
12  11  12  13  11  10  11  12  10   9  10  11   9   8   9  10   8   7   8   9   7   6   7   8   6   5   6   7   5   4   5   6   4   3   4   5   3   2   3   4   2   1   2   3   1   0   1   2   2   1   2   3   3   2   3   4   4   3   4   5  
13  12  11  12  12  11  10  11  11  10   9  10  10   9   8   9   9   8   7   8   8   7   6   7   7   6   5   6   6   5   4   5   5   4   3   4   4   3   2   3   3   2   1   2   2   1   0   1   3   2   1   2   4   3   2   3   5   4   3   4  
14  13  12  11  13  12  11  10  12  11  10   9  11  10   9   8  10   9   8   7   9   8   7   6   8   7   6   5   7   6   5   4   6   5   4   3   5   4   3   2   4   3   2   1   3   2   1   0   4   3   2   1   5   4   3   2   6   5   4   3  
12  13  14  15  11  12  13  14  10  11  12  13   9  10  11  12   8   9  10  11   7   8   9  10   6   7   8   9   5   6   7   8   4   5   6   7   3   4   5   6   2   3   4   5   1   2   3   4   0   1   2   3   1   2   3   4   2   3   4   5  
13  12  13  14  12  11  12  13  11  10  11  12  10   9  10  11   9   8   9  10   8   7   8   9   7   6   7   8   6   5   6   7   5   4   5   6   4   3   4   5   3   2   3   4   2   1   2   3   1   0   1   2   2   1   2   3   3   2   3   4  
14  13  12  13  13  12  11  12  12  11  10  11  11  10   9  10  10   9   8   9   9   8   7   8   8   7   6   7   7   6   5   6   6   5   4   5   5   4   3   4   4   3   2   3   3   2   1   2   2   1   0   1   3   2   1   2   4   3   2   3  
15  14  13  12  14  13  12  11  13  12  11  10  12  11  10   9  11  10   9   8  10   9   8   7   9   8   7   6   8   7   6   5   7   6   5   4   6   5   4   3   5   4   3   2   4   3   2   1   3   2   1   0   4   3   2   1   5   4   3   2  
13  14  15  16  12  13  14  15  11  12  13  14  10  11  12  13   9  10  11  12   8   9  10  11   7   8   9  10   6   7   8   9   5   6   7   8   4   5   6   7   3   4   5   6   2   3   4   5   1   2   3   4   0   1   2   3   1   2   3   4  
14  13  14  15  13  12  13  14  12  11  12  13  11  10  11  12  10   9  10  11   9   8   9  10   8   7   8   9   7   6   7   8   6   5   6   7   5   4   5   6   4   3   4   5   3   2   3   4   2   1   2   3   1   0   1   2   2   1   2   3  
15  14  13  14  14  13  12  13  13  12  11  12  12  11  10  11  11  10   9  10  10   9   8   9   9   8   7   8   8   7   6   7   7   6   5   6   6   5   4   5   5   4   3   4   4   3   2   3   3   2   1   2   2   1   0   1   3   2   1   2  
16  15  14  13  15  14  13  12  14  13  12  11  13  12  11  10  12  11  10   9  11  10   9   8  10   9   8   7   9   8   7   6   8   7   6   5   7   6   5   4   6   5   4   3   5   4   3   2   4   3   2   1   3   2   1   0   4   3   2   1  
14  15  16  17  13  14  15  16  12  13  14  15  11  12  13  14  10  11  12  13   9  10  11  12   8   9  10  11   7   8   9  10   6   7   8   9   5   6   7   8   4   5   6   7   3   4   5   6   2   3   4   5   1   2   3   4   0   1   2   3  
15  14  15  16  14  13  14  15  13  12  13  14  12  11  12  13  11  10  11  12  10   9  10  11   9   8   9  10   8   7   8   9   7   6   7   8   6   5   6   7   5   4   5   6   4   3   4   5   3   2   3   4   2   1   2   3   1   0   1   2  
16  15  14  15  15  14  13  14  14  13  12  13  13  12  11  12  12  11  10  11  11  10   9  10  10   9   8   9   9   8   7   8   8   7   6   7   7   6   5   6   6   5   4   5   5   4   3   4   4   3   2   3   3   2   1   2   2   1   0   1  
17  16  15  14  16  15  14  13  15  14  13  12  14  13  12  11  13  12  11  10  12  11  10   9  11  10   9   8  10   9   8   7   9   8   7   6   8   7   6   5   7   6   5   4   6   5   4   3   5   4   3   2   4   3   2   1   3   2   1   0  

 0   0   0   0   0   0   0   0   0   0   0   0   0   0   0   2  28   0   1   1   0   0   0   1   0   0   1   0   0   0   0   0  42   0   0   1   1   0   1   0   0   1  26   0   0   1   1   0   0   0   0   1   0   0   0   0   0  42   0   0  
 0   0   0   0   0   0   0   1   0   0   0   0   1   0   0   0   0   0   0   0   0   2   0  52   1   0  25   0   0   1   1   0   0   0   2   0   0  29   0   0  15   0  20  18   0   1   0   1   9   0   0   1   0  67   1  37   1   1   0   0  
44   0   0   0   0   1   8   0   1   0   1   2   1   0   1  75   0   0   1   0   0   0   0   0   0   0   0   0   1   0   0   0   3   0   1  67   0  12   0   1   0   9   0   0   4   0   0  37   0   1   0   0   0   0   0   0   0  90   0   0  
 0   7   4   0  78   0  67   0   1   0   0   0   1   0   0   1   0   0   1   1  51   0   0   0   0   1   1   0   0   0   0   0   0   0   0   0   1  51   0   0   0   0  26   0   7   9   1   1   0   1   0   0   0   0   0   0   1   0   0   0  
 0   0  13   0   0   1   3   0   1   0   0   0   0   0   0   0   1   0   0   0  34   0   1   1   0   0   0   0   0   1   0   0   0   0   0   0   0   3   0  25   0   1   0   1   0   0  63   0   0   0   0   0   0   2   1   0   0   0   0   0  
 2   0  29   1   0   0   1   0   7   0   0   0  66   0   0   0   0   0   0   0   0  29   0  15   0   0   0   0   0   6   0  88   0   0   0   0   5   0  12   0   0   0  84   0   0  65   0   0   0  49   1   0   1   2   0   0   0   0   5   0  
 0   0   0   1   0   0   0   1   0   1   0   0   1  83  93   1   0   1   2   0  39   1   0   1   1  54   0   0  40   0   1   1   0   0   0   2   0   0  23   1  16   0   0   0   1   0   0   1   0   0   0   1   0   0   0   0   0   0   4   0  
 0   0   1   0  34   0   0   0   0   0   1   0   1   0   0   0  61   0   0   0   0   0   0   0   0   0   1  11   0   0   0   0   0  17   0   0   1   0   0  18  84  13   0   0   0   0  20  36  36   0   1   0  27  23   0   1   0   0   0   0  
36   0   0   0   0   1   0  11   0   0   0  58   1   0   0  86   0   0   0   0  21   0   8   1   0   0   0   0   0   0  34  18   0   0   0   0   1   0   1   0   0   4   0   0   0   9   0   0   0   0   4   0   0   0   0   0   0  41   0   0  
 0   1   0   0   1   1   0  53   0   0   0  88   0   0   0   0   1  14   0   0   0   0   0   0   0   0   5  48   0   1   0   0   1   0   0   0  86   1   0   0   2   0   0   1   0   0   0   0   1   0   0   1   0   0   0   1   0   0  58   0  
 0   1   0   3   0   0  18  45   0   0   0   1  67   0  72   1   0  23   1   0   0   0   0  16   1  50  50   0   0   0  10   0   0   1   0   0   0   0   0   0  12  37   0  23   0   0   0   1   7   1  93   0   0   3   0   0   0   0   0   0  
 0   0   0   1   1  14   0  97   0   0   0   0   0   0   0   0   0   0   1  19   0   3   1   9   0   0   0   0   0  54   1   0   0   0   0   1   1   0   0   0  13   0   0   1   0   1   0   0   0   0  47   0  72   0   2   0   0   1   3   0  
 0  24   0   0   0   1   0   1   0   0  40   0   0  42   3   0  19   0   0   0  45   7   0   0   0   1   1  14   1   0   0   1   1   2   0   1   0   0   0   0   0   0  62   1  63   0   0   1  62   0  71   0   0  36   0   0  65   0   1   0  
 0  20  45   1   0   0   0   0   1  59   0   0   0   0  68   0   1   0   0   0  13   0   6   0   0   7   0  25   0   0   0   0   1   0   0   0   0   1   0   1   0   0   0   0   0   0  92   0   0   8   0   0   1   1   0   0   1   0  62   0  
 0   0   0   0   0  31   0   0   0   0   1   0   1   0   0   0   1   0   1   0   0   0  98   0   0   0   0   1   0   0   0   0   0   0   1  68   0   1   0  72   0   0  71   0   0   5   1   1   0   9  60   0   0   0   0   0  17   0   1  12  
 1  37   0   0   0   0   0  32   0   0   3   0   0  77   1   0   0   0   0   0   1   0   0   0   0   0   1   0   0   1   0   0   0   0  16   0   1   1   0   0   0   0   0   0   1   0   0   0   0   0   0   0   0   1   0   1   0   0   0   0  
16   0   0   1   0   1   0   0   0   1   1   0   0   0   1   3   0   0   0   0   1   0   0   0   0   0   0   0   0   1   0  23   1  36   0   0   0   0   0   0   0  22  33   0   0   0   0   0   6   0   0   0   0   1   1   0   1   0  10  23  
 1  62  38   0  30   1   0   0   0   0   6  55   0   0   1   1   0   0   0   0   0   0   0   1  70   0   0   0   1   0  22   0   0   1  64   0   0   0   0   3   1   1   0   0   0  13   0   0   1   0   0   0   0   1   0   0   0   0   1   8  
 0   0  27   0   1   0   0   1   0   0   0   0   0  29   0   0   8   3   0  22   0   0  53   0   0   1   0   0  95   0   0  37   0   0   0   0  69   1   1   0   1   0  80   0   0   1   0   0   0  24   1   3   0   1   0   0   0   0   0   0  
 0   0   0   0   0   1   0   1   0   0   0   1   0   0   0   0   0   0   1   0   0   0   1   0   0   0   0  64   0   1   0   0   1   0   0   0   0   0   0   0   1   0   0   1  71   0   0   0   0   0   0   0   0   0   0   0   0   3   0   0  
 2   1   3   0   1   1   0   3   0   0   0   0   0   0   0   0  91   9   0   0   0   0   0   0   0   0   0   1   0   0  13   1   0   1   0   1   0   0   0   0   1   0   0   0   0  29   0   0   0   1   0   0   1   0   1   0  58   0   2   0  
 0  45   0   0   0   9  79   0   0   0   0   1  23   1   3   0   0   4   0   1   0   0  91   0   0   0   0   0   1   0   0   0   0   0   0   0   0   0   0   1   0   0   1   0  57   0  38   2   0  16   6   0   0   0   0  12   1  62   0   0  
 0   0   0   0   1   0   0   0   0   0  28   3   0  11   0   0   0   0   1   1   0   0   0   0   0  14   0   0   0   0   1   0   0   0   0   0   0   0   1  59   4   0   0   1   0   0  34   0   0   0   4  55   1   0   0   0  76  38   0   0  
 1  25   0   0   0   0   0   7   0   0   0   1  40   0   0   1   0   0   0   0   0   0   1   0   1   0   1   6   1   1  14   0   0  87   0   1   0   0   0  11  12   1   0   0   0   0   1   0   0   0   2   9   0  24  82   0   0   0  34   0  
 0   0  52   0  41   0   0   0   1   1  46   0  19  48   1   0   0   0   0   0   1   0   0   0   0   0   0   0   1   0   0   0   0  85   0   0  69   1   0   2   1   1   8   0   1   0   0   1   0  55   0   0   1   0  78   0   1   0  39   0  
 1   0   0   0   0   0   9   0   1   1   0   0   0   0   0   0   1   6   0   0   0  22   0   0   1   0   0   1   0   0   0   1   0   0   0   0   4   0   1   0   0   0   0   0   0  65   0   0   0   0   0   0   4   0  69   0  58   0  69   0  
 0   0   0   0   0   0   0   0   0   0  96   0   0   0   0   0   1   1   0   1  12  19   0   1   0   0   0   1  54   0   1   0   0   3   1   0   0  25   0   1   0   1   1   0   0   0   7   0   3   1   0   0   1  44   0  15   0   0   0   2  
 0   1   1  31   8  23   5   1   0   0   0   1   0   7   0   0   0   0  19   2   3  87   0   0   0   0   1   0  31   0   0  69   0   0   0   0   0   0   0   0   1   0   0   0   0   1   0   0  61   1   0   0   0   0   0   0   0   0   0   1  
 0   0   0   0   0   0   0   0   0  15   1   1   0   0   0   0  77   0   0   1  49   0   0   0   1   0   3   0   0   0   0   0   0   0   0   0   0  29   0   0   0   1   0   0   0   0  19   0   0   9   1  69  44  38   0   0   0   9   0   0  
 0   0   0   0   0  12   0   0   4   1   0   0   0   0   0   0   0   2   0   6   0   0   0   1   0   0   1  47   0   0   0   1   0   0  24   0   0   1   0   0   0   0   1   5  16   0   0   0   0  78   0   0   0   0   4   1   0  56   0   0  
 1   0   4   0   0   0   0   0   0   1   0   0   0   0   0   0   0   7   0  21   0   0   0   0   0   8   0   0   0   0   0  95  10   0   0   1   0   0   0   1   0   1   1   0   0   0   0  51   0   0   0   1   0   1   1   1   0   6   1   0  
 0   1   0   1   0   0  12   1   0   0   0   0   0   0   0   0  90   0   0   0   1   0   0   1   1   1   0   0   0   0   0   0   0   1   0   0   0   0   0   0   0   0   0  51   0   0   0   0   0   0   0   0   0   1   0   0   1   2   0   0  
 1   0   0   0   0   0   0   0   0   0   3  30   1   1   0  21   1   5   0  15   0   1   0   0   0   0   0   0   0   0   0   2   0   0   0   0   0  21   0   0   0   1  89   0   0   0   0   5   0  41  19   0  59   0   0   0   0   0   0   0  
 0   0   0   3   0  31   1   0   0   0   0   0   0   1   3   0   7   0   0   1   1   9   4   0   1   0   8  11   0  37  30  23   0   0   1   0   0   0   1   0   0   0   0   1   0   0   0   1   0   0   0   0   0   0   0   0   0   0   0  20  
 0   0   0   2   1   1   0   1   0   1   0   1   0   0   0   0   0  47   0   0   0   0   0   1  13   0   0   0   0   0   0   0   0   0   0   1   0   0   0   0  65   0   0   1   0   1   1   0   0   0   0   0   0   0   0   0   0   0   0   0  
 1   0   1   1   0   1   0   0   0   0   0   0  62   0   0  10   1   0   1   1   0   0   1   0  26   0   0   1   1  25   0   1  10   0   0   0   0   0   9   0   0  60   0  17  53   0   0  64   0   0   0   1   1   0  33   1   1  37   0   0  
 0   0   0   0   0   0   9   1   0   4   0   3   0   0  45   0  66   1   0   0  24   6   0   0   1   0   1   0   1  36   0   0   0   1   0   0   0   0   1   0  47   0  77   0   0   1   0   1   0   0   5   0   5   0   0   0  70   1   1   0  
 0   0   0   0   1   0   1   0   0  16   0  36   1   0   0  75   0   0   0   0   9   0   1   0   0   1   0   0   0   0   0   8   0   0   3  12   0   0   0   0   0   0   0   1   0   0  24  96   0   0   0   0   0   1   0   3   0   0   0   0  
 0   0   0   1   3   0   0   0  36   0   1   0   0  73   0   1   0   1   1   0   0   5   0   0   0   0   0   0   0   1   0   0   1   0   1   0   0   0   0   0   3   2   0   1   0  21   0   0   0   0   0   0   0   1   1   0  16   0   0   0  
 0   2  10   0   0  94   1   0   0   0   0   0  77   1   1   0   0   0   0   0   3   0   0   0   0   0   1   0   0   8  46   0   0   0   0   6   0   0   0   0   0   0   0   1   0   0   0   1   0   0   0   0   0   0   0   0   0   0   0   0  
 0   0   0   0   0   0   0   0   0   0   0   0   0  14  11   0   6   0   0   0   0   1   2   1   1   3   4   0  38   8   0   0   3   0   0   0  56   1   0   0   0   0   0   0   0   0   0   1   0   0   0   0   0   1   6  45   0   1   0   1  
66  10   0   0  14   0   0   0   1   0   0   0   0   0   0   3   0   0   0   1   1  62   5   0   0   0   2   5   0   0  27   0  97   0   0   0   0   5   0   0  29   0   0   0   0   0   0   0   0   0   0   0   0   0   0  74   0   1   0   0  
 0   0   1   0   0   0   0   0   0   1   0   0   0   1  13   1   0   0  15  28  29   0   0   1   2   0   1   0   0   0   1   0   0   0   0   0   1   0  21   0   0   0   0   0   0   0   0   0   0   0  13   0   0   0   0   0   0   1   0   0  
 0   0   0   1   0  13  84  66   0   0  58   1   0   0   0   0   0  56   0   0   1   0   0  48   0   0   0   0   0   0   0   1   0   1   0   0   0   1   0  16   0   0   1   0   0   1   0   1   0   0   1   0   0   3   0   0   0   0  15   0  
80   0   0   0   0   1  94   1   0   5   0   1   0   0   0   0   1  20   0   0   0   1   1   1   0  10   5   0   1   0   0   0   0   0   0   0   0   0   0   1   0   0   0  75   0   0   0   0   0   0   0   0   2   0  54   0   0   1   1   0  
 0   0   3   0   0   0   0   0  45   1   0   0  82   0   0   0   0  59   0  18   1   1   0   1  94   0  39   1   0   0   0   0   0   0  32   0   3   0   1   0   1   0   1   0   9   0   0  67   1   0   1   0   8   1   0   0   0   1   0   0  
 0   0  23   0   0   0   0   3   1   0   1  32   0   0  39   0   0   0   0   0   0  25   0   0   0   0   0   0  24   0   0   0   0   3   9   0   0   0   0   0   0  93   0   0   0  51   0   0  61   0   0   0   0   0   4   0  38   0   0  55  
 5   0   0   0   0   0   0   0   0   0  39   0   1  58   0   0   0   0   0   1   1   0   0  40   0   0   0   1   1   5  85   0  75   0   0  41   0   0   1   0   1   0   0   0   0  28   0   0   0   0   0   0   4   0   0  34   0   0   0   0  
 0   0   0   0   0   0   1   0   1   1   0   1   0   1   0   0   0   1   0   0  41   0   1   0   0   0   1   0   1   0  48   0   1  78   0   0   0   0   0   0   0   2   3  46   0   1   0   0   0   0   0   0   0   0   0   0   0   1   0   1  
 0   0   1   0   0   0   0   1   0   0   0  45  58   0   4   1   0   0   0  21   0  59   0   1   0   0   0   0  33   0   0   7   0   0   0   0   0   0   0   0   0   0   0   0   0   0  29  66   0   0   1   1   0   0   0   0   3   1   0   0  
 0   0   0  93   0   0   3   0   0  29   0   1   0   0   0   1   0   0   0   1   0   0   0   0   0   0   0   0   0   0   0   0   7   1   0   1   8   0   1   0   0   7   0   0   1   0   1   0   0   3   0   0   0   0   0   1   0   0   0   0  
 0   0   0   0   0   0   0   0  50   0   0   0   0   0   1   0   1   0   0   0   0   0   0   0   0  43   1   1   0  65   0   0   0   0   0   7   0   0   0   0   0   0   0   0   0   0   0   1   0  46   1   0   3   1  87   0   0   0   0   0  
 0   0   1   0   1   0  63   0  45   1   0   0   0   0   0   0   0   0   0   1   1   0   1   0  14   0   0   1   0   0  90   1   0  14   0   0  73   0   0   0   0   0   0   1   0   0   0   0   0   0   0   1   0  85  19  73   0   1   0   4  
71   0   0   0   0   0   0   0   0   0   0   0   0  50   0   0   1   2   0   0   0   0   0   0   0   0  76  86   0   0   5   0   0   1   0   0   0   0   0   0   0   1   0   0   0   1   0  70   0   0   1   0  10   0  39   0   1   0   0   0  
 0   0   0  30   0  73   1   3   5   1   0   7   0   0   1  22   0   1   0   1   0   0  24   0   0   0   0   0   0   0  61   1   0   0   4   1   1   0   0   0   5   0   0   0   0   1   0   0   0   0   0   0   1   0   0   1   1   1   0   0  
53   0   2   0   1   0   1   5   0   0   0   0   0   0   1   0   1   0   1   1   0   0   0   0   1  15   0   0   0   0   0  24   0   0   0   1   0   0   0   0   1   0   0   0   0   0   1   0   0   0   0  60  79   5  41   0   0   1   8   0  
14   0   0   0   0   0   0   0   0   0  23   2   0   0   0   0   0   0   0   0   0   0   0   0   0   0   0   0   1   0   0   0   0   0   0  76   2   1   0   0   1   0   0   0   0   0  45   1   0   0   0   3   0   0   0   0   0   1   0   0  
 0   1   0   0   1   1  12   0   0   0   0   0   0   0   0   1   1   0   0   1   0  57   0   0   0   0   0   0   0   9   0   0   0   0   0   0   1   0   0   0   7   0   0   0   0   0   0   0   0   0   0   1   0   0   0   0   0   0   0  24  
 0  27  33   0   1   0   0   0  33   0   0   0  12   0  78   3   1   0   0  52   0   0   0   0   0   0   0   0   1   0   0   0   0   1   0   0   0   0   0   0   0   1   1   0  47   0   0   0   0   0   0   0   0   0   1   0   1   1   0   0  
 1  93   1   0   0   0   4   0   6   0   0   0   0   0   0   0   0   0   0   0   1   0   1   0   0   0   1   0   0  49  13   0   0   0   0   0   0   0   0   0   1   0   1   0   0   0   1   0   0   0   0   0   0   0   7   0   0   0   0   0  
